p cnf 848 1621
21 22 23 0
-24 0
-21 25 0
-22 25 0
-21 -22 26 0
-23 27 0
-24 27 0
-23 -24 28 0
-25 29 0
-27 29 0
-25 -27 30 0
-26 31 0
-28 31 0
-26 -28 32 0
-30 33 0
-31 33 0
-30 -31 34 0
-33 0
35 36 37 0
-38 0
-35 39 0
-36 39 0
-35 -36 40 0
-37 41 0
-38 41 0
-37 -38 42 0
-39 43 0
-41 43 0
-39 -41 44 0
-40 45 0
-42 45 0
-40 -42 46 0
-44 47 0
-45 47 0
-44 -45 48 0
-47 0
49 50 51 0
-52 0
-49 53 0
-50 53 0
-49 -50 54 0
-51 55 0
-52 55 0
-51 -52 56 0
-53 57 0
-55 57 0
-53 -55 58 0
-54 59 0
-56 59 0
-54 -56 60 0
-58 61 0
-59 61 0
-58 -59 62 0
-61 0
63 64 65 0
-66 0
-63 67 0
-64 67 0
-63 -64 68 0
-65 69 0
-66 69 0
-65 -66 70 0
-67 71 0
-69 71 0
-67 -69 72 0
-68 73 0
-70 73 0
-68 -70 74 0
-72 75 0
-73 75 0
-72 -73 76 0
-75 0
77 78 79 0
-80 0
-77 81 0
-78 81 0
-77 -78 82 0
-79 83 0
-80 83 0
-79 -80 84 0
-81 85 0
-83 85 0
-81 -83 86 0
-82 87 0
-84 87 0
-82 -84 88 0
-86 89 0
-87 89 0
-86 -87 90 0
-89 0
91 92 93 0
-94 0
-91 95 0
-92 95 0
-91 -92 96 0
-93 97 0
-94 97 0
-93 -94 98 0
-95 99 0
-97 99 0
-95 -97 100 0
-96 101 0
-98 101 0
-96 -98 102 0
-100 103 0
-101 103 0
-100 -101 104 0
-103 0
105 106 107 0
-108 0
-105 109 0
-106 109 0
-105 -106 110 0
-107 111 0
-108 111 0
-107 -108 112 0
-109 113 0
-111 113 0
-109 -111 114 0
-110 115 0
-112 115 0
-110 -112 116 0
-114 117 0
-115 117 0
-114 -115 118 0
-117 0
119 120 121 0
-122 0
-119 123 0
-120 123 0
-119 -120 124 0
-121 125 0
-122 125 0
-121 -122 126 0
-123 127 0
-125 127 0
-123 -125 128 0
-124 129 0
-126 129 0
-124 -126 130 0
-128 131 0
-129 131 0
-128 -129 132 0
-131 0
133 134 135 0
-136 0
-133 137 0
-134 137 0
-133 -134 138 0
-135 139 0
-136 139 0
-135 -136 140 0
-137 141 0
-139 141 0
-137 -139 142 0
-138 143 0
-140 143 0
-138 -140 144 0
-142 145 0
-143 145 0
-142 -143 146 0
-145 0
147 148 0
-147 -148 0
149 0
20 150 0
19 150 0
20 19 151 0
17 150 0
20 17 151 0
19 17 151 0
20 19 17 152 0
13 153 0
11 153 0
13 11 154 0
1 153 0
13 1 154 0
11 1 154 0
13 11 1 155 0
16 156 0
-153 156 0
-154 157 0
-155 158 0
16 -153 157 0
16 -154 158 0
16 -155 159 0
-150 160 0
-151 161 0
-152 162 0
-156 160 0
-157 161 0
-158 162 0
-159 163 0
-150 -156 161 0
-150 -157 162 0
-150 -158 163 0
-150 -159 164 0
-151 -156 162 0
-151 -157 163 0
-151 -158 164 0
-151 -159 165 0
-152 -156 163 0
-152 -157 164 0
-152 -158 165 0
-152 -159 166 0
-22 167 0
-161 167 0
-163 168 0
-165 169 0
-22 -161 168 0
-22 -163 169 0
-22 -165 170 0
-170 0
-23 171 0
-168 171 0
-170 172 0
-23 -168 172 0
-172 0
173 0
-173 174 0
-20 174 0
-173 -20 175 0
-19 174 0
-173 -19 175 0
-20 -19 175 0
-173 -20 -19 176 0
-17 177 0
-16 177 0
-17 -16 178 0
-13 179 0
-11 179 0
-13 -11 180 0
-1 179 0
-13 -1 180 0
-11 -1 180 0
-13 -11 -1 181 0
-177 182 0
-178 183 0
-179 182 0
-180 183 0
-181 184 0
-177 -179 183 0
-177 -180 184 0
-177 -181 185 0
-178 -179 184 0
-178 -180 185 0
-178 -181 186 0
-174 187 0
-175 188 0
-176 189 0
-182 187 0
-183 188 0
-184 189 0
-185 190 0
-186 191 0
-174 -182 188 0
-174 -183 189 0
-174 -184 190 0
-174 -185 191 0
-174 -186 192 0
-175 -182 189 0
-175 -183 190 0
-175 -184 191 0
-175 -185 192 0
-175 -186 193 0
-176 -182 190 0
-176 -183 191 0
-176 -184 192 0
-176 -185 193 0
-176 -186 194 0
-194 0
22 195 0
-188 195 0
-190 196 0
-192 197 0
-194 198 0
22 -188 196 0
22 -190 197 0
22 -192 198 0
-198 0
23 199 0
-196 199 0
-198 200 0
23 -196 200 0
-200 0
201 0
-201 202 0
-19 202 0
-201 -19 203 0
-12 204 0
-11 204 0
-12 -11 205 0
-2 204 0
-12 -2 205 0
-11 -2 205 0
-12 -11 -2 206 0
-202 207 0
-203 208 0
-204 207 0
-205 208 0
-206 209 0
-202 -204 208 0
-202 -205 209 0
-202 -206 210 0
-203 -204 209 0
-203 -205 210 0
-203 -206 211 0
36 212 0
-208 212 0
-210 213 0
36 -208 213 0
36 -210 214 0
37 215 0
-213 215 0
37 -213 216 0
-216 0
217 0
-217 218 0
19 218 0
-217 19 219 0
12 220 0
11 220 0
12 11 221 0
2 220 0
12 2 221 0
11 2 221 0
12 11 2 222 0
-218 223 0
-219 224 0
-220 223 0
-221 224 0
-222 225 0
-218 -220 224 0
-218 -221 225 0
-218 -222 226 0
-219 -220 225 0
-219 -221 226 0
-219 -222 227 0
-217 228 0
-36 228 0
-217 -36 229 0
-228 230 0
-229 231 0
-224 230 0
-226 231 0
-228 -224 231 0
-228 -226 232 0
-229 -224 232 0
-229 -226 233 0
-233 0
-37 234 0
-231 234 0
-233 235 0
-37 -231 235 0
-235 0
236 0
-236 237 0
-16 237 0
-236 -16 238 0
-14 239 0
-13 239 0
-14 -13 240 0
-3 239 0
-14 -3 240 0
-13 -3 240 0
-14 -13 -3 241 0
-237 242 0
-238 243 0
-239 242 0
-240 243 0
-241 244 0
-237 -239 243 0
-237 -240 244 0
-237 -241 245 0
-238 -239 244 0
-238 -240 245 0
-238 -241 246 0
50 247 0
-243 247 0
-245 248 0
50 -243 248 0
50 -245 249 0
51 250 0
-248 250 0
51 -248 251 0
-251 0
252 0
-252 253 0
16 253 0
-252 16 254 0
14 255 0
13 255 0
14 13 256 0
3 255 0
14 3 256 0
13 3 256 0
14 13 3 257 0
-253 258 0
-254 259 0
-255 258 0
-256 259 0
-257 260 0
-253 -255 259 0
-253 -256 260 0
-253 -257 261 0
-254 -255 260 0
-254 -256 261 0
-254 -257 262 0
-252 263 0
-50 263 0
-252 -50 264 0
-263 265 0
-264 266 0
-259 265 0
-261 266 0
-263 -259 266 0
-263 -261 267 0
-264 -259 267 0
-264 -261 268 0
-268 0
-51 269 0
-266 269 0
-268 270 0
-51 -266 270 0
-270 0
271 0
20 272 0
19 272 0
20 19 273 0
18 272 0
20 18 273 0
19 18 273 0
20 19 18 274 0
13 275 0
11 275 0
13 11 276 0
4 275 0
13 4 276 0
11 4 276 0
13 11 4 277 0
15 278 0
-275 278 0
-276 279 0
-277 280 0
15 -275 279 0
15 -276 280 0
15 -277 281 0
-272 282 0
-273 283 0
-274 284 0
-278 282 0
-279 283 0
-280 284 0
-281 285 0
-272 -278 283 0
-272 -279 284 0
-272 -280 285 0
-272 -281 286 0
-273 -278 284 0
-273 -279 285 0
-273 -280 286 0
-273 -281 287 0
-274 -278 285 0
-274 -279 286 0
-274 -280 287 0
-274 -281 288 0
-64 289 0
-283 289 0
-285 290 0
-287 291 0
-64 -283 290 0
-64 -285 291 0
-64 -287 292 0
-292 0
-65 293 0
-290 293 0
-292 294 0
-65 -290 294 0
-294 0
295 0
-295 296 0
-20 296 0
-295 -20 297 0
-19 296 0
-295 -19 297 0
-20 -19 297 0
-295 -20 -19 298 0
-18 299 0
-15 299 0
-18 -15 300 0
-13 301 0
-11 301 0
-13 -11 302 0
-4 301 0
-13 -4 302 0
-11 -4 302 0
-13 -11 -4 303 0
-299 304 0
-300 305 0
-301 304 0
-302 305 0
-303 306 0
-299 -301 305 0
-299 -302 306 0
-299 -303 307 0
-300 -301 306 0
-300 -302 307 0
-300 -303 308 0
-296 309 0
-297 310 0
-298 311 0
-304 309 0
-305 310 0
-306 311 0
-307 312 0
-308 313 0
-296 -304 310 0
-296 -305 311 0
-296 -306 312 0
-296 -307 313 0
-296 -308 314 0
-297 -304 311 0
-297 -305 312 0
-297 -306 313 0
-297 -307 314 0
-297 -308 315 0
-298 -304 312 0
-298 -305 313 0
-298 -306 314 0
-298 -307 315 0
-298 -308 316 0
-316 0
64 317 0
-310 317 0
-312 318 0
-314 319 0
-316 320 0
64 -310 318 0
64 -312 319 0
64 -314 320 0
-320 0
65 321 0
-318 321 0
-320 322 0
65 -318 322 0
-322 0
323 0
18 324 0
16 324 0
18 16 325 0
14 324 0
18 14 325 0
16 14 325 0
18 16 14 326 0
12 327 0
11 327 0
12 11 328 0
5 327 0
12 5 328 0
11 5 328 0
12 11 5 329 0
13 330 0
-327 330 0
-328 331 0
-329 332 0
13 -327 331 0
13 -328 332 0
13 -329 333 0
-324 334 0
-325 335 0
-326 336 0
-330 334 0
-331 335 0
-332 336 0
-333 337 0
-324 -330 335 0
-324 -331 336 0
-324 -332 337 0
-324 -333 338 0
-325 -330 336 0
-325 -331 337 0
-325 -332 338 0
-325 -333 339 0
-326 -330 337 0
-326 -331 338 0
-326 -332 339 0
-326 -333 340 0
-78 341 0
-335 341 0
-337 342 0
-339 343 0
-78 -335 342 0
-78 -337 343 0
-78 -339 344 0
-344 0
-79 345 0
-342 345 0
-344 346 0
-79 -342 346 0
-346 0
347 0
-347 348 0
-18 348 0
-347 -18 349 0
-16 348 0
-347 -16 349 0
-18 -16 349 0
-347 -18 -16 350 0
-14 351 0
-13 351 0
-14 -13 352 0
-12 353 0
-11 353 0
-12 -11 354 0
-5 353 0
-12 -5 354 0
-11 -5 354 0
-12 -11 -5 355 0
-351 356 0
-352 357 0
-353 356 0
-354 357 0
-355 358 0
-351 -353 357 0
-351 -354 358 0
-351 -355 359 0
-352 -353 358 0
-352 -354 359 0
-352 -355 360 0
-348 361 0
-349 362 0
-350 363 0
-356 361 0
-357 362 0
-358 363 0
-359 364 0
-360 365 0
-348 -356 362 0
-348 -357 363 0
-348 -358 364 0
-348 -359 365 0
-348 -360 366 0
-349 -356 363 0
-349 -357 364 0
-349 -358 365 0
-349 -359 366 0
-349 -360 367 0
-350 -356 364 0
-350 -357 365 0
-350 -358 366 0
-350 -359 367 0
-350 -360 368 0
-368 0
78 369 0
-362 369 0
-364 370 0
-366 371 0
-368 372 0
78 -362 370 0
78 -364 371 0
78 -366 372 0
-372 0
79 373 0
-370 373 0
-372 374 0
79 -370 374 0
-374 0
375 0
20 376 0
19 376 0
20 19 377 0
17 376 0
20 17 377 0
19 17 377 0
20 19 17 378 0
14 379 0
11 379 0
14 11 380 0
6 379 0
14 6 380 0
11 6 380 0
14 11 6 381 0
16 382 0
-379 382 0
-380 383 0
-381 384 0
16 -379 383 0
16 -380 384 0
16 -381 385 0
-376 386 0
-377 387 0
-378 388 0
-382 386 0
-383 387 0
-384 388 0
-385 389 0
-376 -382 387 0
-376 -383 388 0
-376 -384 389 0
-376 -385 390 0
-377 -382 388 0
-377 -383 389 0
-377 -384 390 0
-377 -385 391 0
-378 -382 389 0
-378 -383 390 0
-378 -384 391 0
-378 -385 392 0
-92 393 0
-387 393 0
-389 394 0
-391 395 0
-92 -387 394 0
-92 -389 395 0
-92 -391 396 0
-396 0
-93 397 0
-394 397 0
-396 398 0
-93 -394 398 0
-398 0
399 0
-399 400 0
-20 400 0
-399 -20 401 0
-19 400 0
-399 -19 401 0
-20 -19 401 0
-399 -20 -19 402 0
-17 403 0
-16 403 0
-17 -16 404 0
-14 405 0
-11 405 0
-14 -11 406 0
-6 405 0
-14 -6 406 0
-11 -6 406 0
-14 -11 -6 407 0
-403 408 0
-404 409 0
-405 408 0
-406 409 0
-407 410 0
-403 -405 409 0
-403 -406 410 0
-403 -407 411 0
-404 -405 410 0
-404 -406 411 0
-404 -407 412 0
-400 413 0
-401 414 0
-402 415 0
-408 413 0
-409 414 0
-410 415 0
-411 416 0
-412 417 0
-400 -408 414 0
-400 -409 415 0
-400 -410 416 0
-400 -411 417 0
-400 -412 418 0
-401 -408 415 0
-401 -409 416 0
-401 -410 417 0
-401 -411 418 0
-401 -412 419 0
-402 -408 416 0
-402 -409 417 0
-402 -410 418 0
-402 -411 419 0
-402 -412 420 0
-420 0
92 421 0
-414 421 0
-416 422 0
-418 423 0
-420 424 0
92 -414 422 0
92 -416 423 0
92 -418 424 0
-424 0
93 425 0
-422 425 0
-424 426 0
93 -422 426 0
-426 0
427 0
-427 428 0
20 428 0
-427 20 429 0
19 428 0
-427 19 429 0
20 19 429 0
-427 20 19 430 0
17 431 0
15 431 0
17 15 432 0
13 431 0
17 13 432 0
15 13 432 0
17 15 13 433 0
12 434 0
11 434 0
12 11 435 0
7 434 0
12 7 435 0
11 7 435 0
12 11 7 436 0
-431 437 0
-432 438 0
-433 439 0
-434 437 0
-435 438 0
-436 439 0
-431 -434 438 0
-431 -435 439 0
-431 -436 440 0
-432 -434 439 0
-432 -435 440 0
-432 -436 441 0
-433 -434 440 0
-433 -435 441 0
-433 -436 442 0
-428 443 0
-429 444 0
-430 445 0
-437 443 0
-438 444 0
-439 445 0
-440 446 0
-441 447 0
-442 448 0
-428 -437 444 0
-428 -438 445 0
-428 -439 446 0
-428 -440 447 0
-428 -441 448 0
-428 -442 449 0
-429 -437 445 0
-429 -438 446 0
-429 -439 447 0
-429 -440 448 0
-429 -441 449 0
-429 -442 450 0
-430 -437 446 0
-430 -438 447 0
-430 -439 448 0
-430 -440 449 0
-430 -441 450 0
-430 -442 451 0
-427 452 0
-106 452 0
-427 -106 453 0
-452 454 0
-453 455 0
-444 454 0
-446 455 0
-448 456 0
-450 457 0
-452 -444 455 0
-452 -446 456 0
-452 -448 457 0
-452 -450 458 0
-453 -444 456 0
-453 -446 457 0
-453 -448 458 0
-453 -450 459 0
-459 0
-107 460 0
-455 460 0
-457 461 0
-459 462 0
-107 -455 461 0
-107 -457 462 0
-462 0
463 0
-463 464 0
-20 464 0
-463 -20 465 0
-19 464 0
-463 -19 465 0
-20 -19 465 0
-463 -20 -19 466 0
-17 467 0
-15 467 0
-17 -15 468 0
-13 467 0
-17 -13 468 0
-15 -13 468 0
-17 -15 -13 469 0
-12 470 0
-11 470 0
-12 -11 471 0
-7 470 0
-12 -7 471 0
-11 -7 471 0
-12 -11 -7 472 0
-467 473 0
-468 474 0
-469 475 0
-470 473 0
-471 474 0
-472 475 0
-467 -470 474 0
-467 -471 475 0
-467 -472 476 0
-468 -470 475 0
-468 -471 476 0
-468 -472 477 0
-469 -470 476 0
-469 -471 477 0
-469 -472 478 0
-464 479 0
-465 480 0
-466 481 0
-473 479 0
-474 480 0
-475 481 0
-476 482 0
-477 483 0
-478 484 0
-464 -473 480 0
-464 -474 481 0
-464 -475 482 0
-464 -476 483 0
-464 -477 484 0
-464 -478 485 0
-465 -473 481 0
-465 -474 482 0
-465 -475 483 0
-465 -476 484 0
-465 -477 485 0
-465 -478 486 0
-466 -473 482 0
-466 -474 483 0
-466 -475 484 0
-466 -476 485 0
-466 -477 486 0
-486 0
106 487 0
-480 487 0
-482 488 0
-484 489 0
-486 490 0
106 -480 488 0
106 -482 489 0
106 -484 490 0
-490 0
107 491 0
-488 491 0
-490 492 0
107 -488 492 0
-492 0
493 0
120 494 0
119 494 0
120 119 495 0
-18 494 0
120 -18 495 0
119 -18 495 0
120 119 -18 496 0
121 497 0
-494 497 0
-495 498 0
-496 499 0
121 -494 498 0
121 -495 499 0
121 -496 500 0
-16 501 0
-15 501 0
-16 -15 502 0
-14 501 0
-16 -14 502 0
-15 -14 502 0
-16 -15 -14 503 0
-13 504 0
-11 504 0
-13 -11 505 0
-8 504 0
-13 -8 505 0
-11 -8 505 0
-13 -11 -8 506 0
-501 507 0
-502 508 0
-503 509 0
-504 507 0
-505 508 0
-506 509 0
-501 -504 508 0
-501 -505 509 0
-501 -506 510 0
-502 -504 509 0
-502 -505 510 0
-502 -506 511 0
-503 -504 510 0
-503 -505 511 0
-503 -506 512 0
-497 513 0
-499 514 0
-507 513 0
-509 514 0
-511 515 0
-497 -507 514 0
-497 -509 515 0
-497 -511 516 0
-499 -507 515 0
-499 -509 516 0
-499 -511 517 0
-498 518 0
-500 519 0
-508 518 0
-510 519 0
-512 520 0
-498 -508 519 0
-498 -510 520 0
-498 -512 521 0
-500 -508 520 0
-500 -510 521 0
-500 -512 522 0
-514 523 0
-518 523 0
-514 -518 524 0
-515 525 0
-519 525 0
-515 -519 526 0
-516 527 0
-520 527 0
-516 -520 528 0
-517 529 0
-521 529 0
-517 -521 530 0
-493 531 0
120 531 0
-493 120 532 0
-531 533 0
-532 534 0
-523 533 0
-525 534 0
-527 535 0
-529 536 0
-522 537 0
-531 -523 534 0
-531 -525 535 0
-531 -527 536 0
-531 -529 537 0
-531 -522 538 0
-532 -523 535 0
-532 -525 536 0
-532 -527 537 0
-532 -529 538 0
-538 0
121 539 0
-534 539 0
-536 540 0
-538 541 0
121 -534 540 0
121 -536 541 0
-541 0
542 0
-120 543 0
-119 543 0
-120 -119 544 0
18 543 0
-120 18 544 0
-119 18 544 0
-120 -119 18 545 0
-121 546 0
-543 546 0
-544 547 0
-545 548 0
-121 -543 547 0
-121 -544 548 0
-121 -545 549 0
16 550 0
15 550 0
16 15 551 0
14 550 0
16 14 551 0
15 14 551 0
16 15 14 552 0
13 553 0
11 553 0
13 11 554 0
8 553 0
13 8 554 0
11 8 554 0
13 11 8 555 0
-550 556 0
-551 557 0
-552 558 0
-553 556 0
-554 557 0
-555 558 0
-550 -553 557 0
-550 -554 558 0
-550 -555 559 0
-551 -553 558 0
-551 -554 559 0
-551 -555 560 0
-552 -553 559 0
-552 -554 560 0
-552 -555 561 0
-546 562 0
-547 563 0
-548 564 0
-549 565 0
-556 562 0
-557 563 0
-558 564 0
-559 565 0
-560 566 0
-561 567 0
-546 -556 563 0
-546 -557 564 0
-546 -558 565 0
-546 -559 566 0
-546 -560 567 0
-546 -561 568 0
-547 -556 564 0
-547 -557 565 0
-547 -558 566 0
-547 -559 567 0
-547 -560 568 0
-547 -561 569 0
-548 -556 565 0
-548 -557 566 0
-548 -558 567 0
-548 -559 568 0
-548 -560 569 0
-549 -556 566 0
-549 -557 567 0
-549 -558 568 0
-549 -559 569 0
-569 0
-120 570 0
-563 570 0
-565 571 0
-567 572 0
-569 573 0
-120 -563 571 0
-120 -565 572 0
-120 -567 573 0
-573 0
-121 574 0
-571 574 0
-573 575 0
-121 -571 575 0
-575 0
576 0
-576 577 0
-18 577 0
-576 -18 578 0
-16 577 0
-576 -16 578 0
-18 -16 578 0
-576 -18 -16 579 0
-13 580 0
-11 580 0
-13 -11 581 0
-9 580 0
-13 -9 581 0
-11 -9 581 0
-13 -11 -9 582 0
-577 583 0
-578 584 0
-579 585 0
-580 583 0
-581 584 0
-582 585 0
-577 -580 584 0
-577 -581 585 0
-577 -582 586 0
-578 -580 585 0
-578 -581 586 0
-578 -582 587 0
-579 -580 586 0
-579 -581 587 0
-579 -582 588 0
134 589 0
-584 589 0
-586 590 0
-588 591 0
134 -584 590 0
134 -586 591 0
134 -588 592 0
-592 0
135 593 0
-590 593 0
-592 594 0
135 -590 594 0
-594 0
595 0
18 596 0
16 596 0
18 16 597 0
13 598 0
11 598 0
13 11 599 0
9 598 0
13 9 599 0
11 9 599 0
13 11 9 600 0
-596 601 0
-597 602 0
-598 601 0
-599 602 0
-600 603 0
-596 -598 602 0
-596 -599 603 0
-596 -600 604 0
-597 -598 603 0
-597 -599 604 0
-597 -600 605 0
-595 606 0
-134 606 0
-595 -134 607 0
-606 608 0
-607 609 0
-602 608 0
-604 609 0
-606 -602 609 0
-606 -604 610 0
-607 -602 610 0
-607 -604 611 0
-611 0
-135 612 0
-609 612 0
-611 613 0
-135 -609 613 0
-613 0
614 0
-614 615 0
-148 615 0
-614 -148 616 0
-147 615 0
-614 -147 616 0
-148 -147 616 0
-614 -148 -147 617 0
15 618 0
12 618 0
15 12 619 0
10 618 0
15 10 619 0
12 10 619 0
15 12 10 620 0
18 621 0
-618 621 0
-619 622 0
-620 623 0
18 -618 622 0
18 -619 623 0
18 -620 624 0
-615 625 0
-616 626 0
-617 627 0
-621 625 0
-622 626 0
-623 627 0
-624 628 0
-615 -621 626 0
-615 -622 627 0
-615 -623 628 0
-615 -624 629 0
-616 -621 627 0
-616 -622 628 0
-616 -623 629 0
-616 -624 630 0
-617 -621 628 0
-617 -622 629 0
-617 -623 630 0
-630 0
-148 631 0
-626 631 0
-628 632 0
-630 633 0
-148 -626 632 0
-148 -628 633 0
-633 0
634 0
-634 635 0
148 635 0
-634 148 636 0
147 635 0
-634 147 636 0
148 147 636 0
-634 148 147 637 0
-15 638 0
-12 638 0
-15 -12 639 0
-10 638 0
-15 -10 639 0
-12 -10 639 0
-15 -12 -10 640 0
-18 641 0
-638 641 0
-639 642 0
-640 643 0
-18 -638 642 0
-18 -639 643 0
-18 -640 644 0
-635 645 0
-636 646 0
-637 647 0
-641 645 0
-642 646 0
-643 647 0
-644 648 0
-635 -641 646 0
-635 -642 647 0
-635 -643 648 0
-635 -644 649 0
-636 -641 647 0
-636 -642 648 0
-636 -643 649 0
-636 -644 650 0
-637 -641 648 0
-637 -642 649 0
-637 -643 650 0
-650 0
148 651 0
-646 651 0
-648 652 0
-650 653 0
148 -646 652 0
148 -648 653 0
-653 0
-654 0
-1 655 0
-2 655 0
-1 -2 656 0
-3 657 0
-4 657 0
-3 -4 658 0
-655 659 0
-657 659 0
-655 -657 660 0
-656 661 0
-658 661 0
-656 -658 662 0
-660 663 0
-661 663 0
-660 -661 664 0
-5 665 0
-6 665 0
-5 -6 666 0
-7 667 0
-8 667 0
-7 -8 668 0
-665 669 0
-667 669 0
-665 -667 670 0
-666 671 0
-668 671 0
-666 -668 672 0
-670 673 0
-671 673 0
-670 -671 674 0
-659 675 0
-669 675 0
-659 -669 676 0
-664 677 0
-674 677 0
-664 -674 678 0
-676 679 0
-677 679 0
-676 -677 680 0
-663 681 0
-673 681 0
-663 -673 682 0
-662 683 0
-672 683 0
-662 -672 684 0
-682 685 0
-683 685 0
-682 -683 686 0
-679 687 0
-681 687 0
-679 -681 688 0
-680 689 0
-685 689 0
-680 -685 690 0
-678 691 0
-686 691 0
-678 -686 692 0
-9 693 0
-10 693 0
-9 -10 694 0
-11 695 0
-12 695 0
-11 -12 696 0
-693 697 0
-695 697 0
-693 -695 698 0
-694 699 0
-696 699 0
-694 -696 700 0
-698 701 0
-699 701 0
-698 -699 702 0
-13 703 0
-14 703 0
-13 -14 704 0
-15 705 0
-16 705 0
-15 -16 706 0
-703 707 0
-705 707 0
-703 -705 708 0
-704 709 0
-706 709 0
-704 -706 710 0
-708 711 0
-709 711 0
-708 -709 712 0
-697 713 0
-707 713 0
-697 -707 714 0
-702 715 0
-712 715 0
-702 -712 716 0
-714 717 0
-715 717 0
-714 -715 718 0
-701 719 0
-711 719 0
-701 -711 720 0
-700 721 0
-710 721 0
-700 -710 722 0
-720 723 0
-721 723 0
-720 -721 724 0
-717 725 0
-719 725 0
-717 -719 726 0
-718 727 0
-723 727 0
-718 -723 728 0
-716 729 0
-724 729 0
-716 -724 730 0
-17 731 0
-18 731 0
-17 -18 732 0
-19 733 0
-20 733 0
-19 -20 734 0
-731 735 0
-733 735 0
-731 -733 736 0
-732 737 0
-734 737 0
-732 -734 738 0
-736 739 0
-737 739 0
-736 -737 740 0
-654 741 0
-654 741 0
-654 -654 742 0
-654 743 0
-654 743 0
-654 -654 744 0
-741 745 0
-743 745 0
-741 -743 746 0
-742 747 0
-744 747 0
-742 -744 748 0
-746 749 0
-747 749 0
-746 -747 750 0
-735 751 0
-745 751 0
-735 -745 752 0
-740 753 0
-750 753 0
-740 -750 754 0
-752 755 0
-753 755 0
-752 -753 756 0
-739 757 0
-749 757 0
-739 -749 758 0
-738 759 0
-748 759 0
-738 -748 760 0
-758 761 0
-759 761 0
-758 -759 762 0
-755 763 0
-757 763 0
-755 -757 764 0
-756 765 0
-761 765 0
-756 -761 766 0
-754 767 0
-762 767 0
-754 -762 768 0
-713 769 0
-751 769 0
-713 -751 770 0
-728 771 0
-766 771 0
-728 -766 772 0
-770 773 0
-771 773 0
-770 -771 774 0
-726 775 0
-764 775 0
-726 -764 776 0
-730 777 0
-768 777 0
-730 -768 778 0
-776 779 0
-777 779 0
-776 -777 780 0
-773 781 0
-775 781 0
-773 -775 782 0
-774 783 0
-779 783 0
-774 -779 784 0
-725 785 0
-763 785 0
-725 -763 786 0
-729 787 0
-767 787 0
-729 -767 788 0
-786 789 0
-787 789 0
-786 -787 790 0
-727 791 0
-765 791 0
-727 -765 792 0
-722 793 0
-760 793 0
-722 -760 794 0
-792 795 0
-793 795 0
-792 -793 796 0
-789 797 0
-791 797 0
-789 -791 798 0
-790 799 0
-795 799 0
-790 -795 800 0
-781 801 0
-785 801 0
-781 -785 802 0
-782 803 0
-797 803 0
-782 -797 804 0
-783 805 0
-798 805 0
-783 -798 806 0
-784 807 0
-799 807 0
-784 -799 808 0
-675 809 0
-769 809 0
-675 -769 810 0
-690 811 0
-804 811 0
-690 -804 812 0
-810 813 0
-811 813 0
-810 -811 814 0
-688 815 0
-802 815 0
-688 -802 816 0
-692 817 0
-806 817 0
-692 -806 818 0
-816 819 0
-817 819 0
-816 -817 820 0
-813 821 0
-815 821 0
-813 -815 822 0
-814 823 0
-819 823 0
-814 -819 824 0
-687 825 0
-801 825 0
-687 -801 826 0
-691 827 0
-805 827 0
-691 -805 828 0
-826 829 0
-827 829 0
-826 -827 830 0
-689 831 0
-803 831 0
-689 -803 832 0
-684 833 0
-807 833 0
-684 -807 834 0
-832 835 0
-833 835 0
-832 -833 836 0
-829 837 0
-831 837 0
-829 -831 838 0
-830 839 0
-835 839 0
-830 -835 840 0
-821 841 0
-825 841 0
-821 -825 842 0
-822 843 0
-837 843 0
-822 -837 844 0
-823 845 0
-838 845 0
-823 -838 846 0
-824 847 0
-839 847 0
-824 -839 848 0
-845 0
